52
6 1 45
1 52 187
52 29 480
29 22 179
22 19 94
19 49 35
49 28 191
28 15 201
15 43 132
43 45 131
45 47 125
47 23 16
23 4 32
4 5 35
5 3 70
3 24 109
24 11 245
11 27 182
27 26 110
26 25 126
25 46 186
46 12 324
12 13 206
13 51 319
51 10 399
10 50 285
50 32 475
32 42 365
42 14 242
14 37 61
37 36 43
36 39 41
39 38 43
38 33 59
33 34 21
34 35 15
35 48 81
48 31 50
31 44 151
44 18 75
18 9 291
9 8 83
8 7 183
7 40 64
40 2 247
2 16 217
16 17 272
17 21 116
21 30 104
30 20 150
20 41 290
41 6 76

